10
1 0 4
2 0 23
2 1 55
3 0 19
3 1 26
3 2 47
4 0 11
4 1 16
4 2 53
4 3 6
5 0 12
5 1 48
5 2 54
5 3 9
5 4 27
6 0 52
6 1 19
6 2 20
6 3 57
6 4 67
6 5 70
7 0 68
7 1 41
7 2 77
7 3 42
7 4 58
7 5 2
7 6 46
8 0 13
8 1 74
8 2 29
8 3 65
8 4 59
8 5 20
8 6 30
8 7 35
9 0 42
9 1 78
9 2 25
9 3 41
9 4 58
9 5 67
9 6 69
9 7 26
9 8 70
